experimental-results/original-data/fig4/urquhart-simon-04-05.cnf
c Random Instance of Urquhart's Problem for SAT (size=4 randomSeed=5).
c Like Hole, this problem as been proved to be exponential for resolution.
c N.B. : instance is unsatisfiable by construction.
c 
c Come from the paper 'Hard Examples for Resolution'.
c        Source : Laurent Simon, simon@lri.fr. May 1999.
c 
c n=4, so there is m^2=16 vertices in each part of the bipartite graph. 
c Bases creations : 
c   - a '1' charge is 'there must be an even number of negated vars'
c   - edges contains variables from which all subbases are constructed.
c vertex A0 :(charge=1), (edges=[76,81,8])
c vertex A1 :(charge=1), (edges=[24,52,54,35,8,27])
c vertex A2 :(charge=0), (edges=[41,65,56,40,27,10])
c vertex A3 :(charge=0), (edges=[15,2,37,10,75])
c vertex A4 :(charge=0), (edges=[46,1,16,9,75,13])
c vertex A5 :(charge=0), (edges=[59,44,67,50,13,11])
c vertex A6 :(charge=0), (edges=[60,11,45])
c vertex A7 :(charge=1), (edges=[21,45,32])
c vertex A8 :(charge=1), (edges=[49,18,62,36,12,32,29])
c vertex A9 :(charge=1), (edges=[70,79,19,69,29,85])
c vertex A10 :(charge=0), (edges=[74,7,38,83,85,53])
c vertex A11 :(charge=0), (edges=[39,4,64,53,58])
c vertex A12 :(charge=0), (edges=[5,28,68,31,72,58,3])
c vertex A13 :(charge=0), (edges=[25,73,23,71,3,78])
c vertex A14 :(charge=0), (edges=[34,26,20,66,61,78,42])
c vertex A15 :(charge=0), (edges=[22,17,42])
c vertex B0 :(charge=0), (edges=[74,62,72,73,14])
c vertex B1 :(charge=0), (edges=[49,81,65,19,23,14,80])
c vertex B2 :(charge=0), (edges=[60,37,12,68,61,80,82])
c vertex B3 :(charge=0), (edges=[70,40,31,82,48])
c vertex B4 :(charge=0), (edges=[15,48,33])
c vertex B5 :(charge=1), (edges=[41,67,33,30])
c vertex B6 :(charge=1), (edges=[59,79,38,30,55])
c vertex B7 :(charge=1), (edges=[39,69,83,26,55,84])
c vertex B8 :(charge=1), (edges=[21,44,64,71,84,63])
c vertex B9 :(charge=0), (edges=[22,56,9,36,63,6])
c vertex B10 :(charge=1), (edges=[24,4,6,57])
c vertex B11 :(charge=1), (edges=[46,50,57,43])
c vertex B12 :(charge=0), (edges=[34,1,43,47])
c vertex B13 :(charge=1), (edges=[76,35,2,20,47,77])
c vertex B14 :(charge=0), (edges=[25,54,28,66,17,77,51])
c vertex B15 :(charge=1), (edges=[5,52,16,18,7,51])
c 
p cnf 85 900
76 81 8 0
76 -81 -8 0
-76 81 -8 0
-76 -81 8 0
24 52 54 35 8 27 0
24 52 54 35 -8 -27 0
24 52 54 -35 8 -27 0
24 52 54 -35 -8 27 0
24 52 -54 35 8 -27 0
24 52 -54 35 -8 27 0
24 52 -54 -35 8 27 0
24 52 -54 -35 -8 -27 0
24 -52 54 35 8 -27 0
24 -52 54 35 -8 27 0
24 -52 54 -35 8 27 0
24 -52 54 -35 -8 -27 0
24 -52 -54 35 8 27 0
24 -52 -54 35 -8 -27 0
24 -52 -54 -35 8 -27 0
24 -52 -54 -35 -8 27 0
-24 52 54 35 8 -27 0
-24 52 54 35 -8 27 0
-24 52 54 -35 8 27 0
-24 52 54 -35 -8 -27 0
-24 52 -54 35 8 27 0
-24 52 -54 35 -8 -27 0
-24 52 -54 -35 8 -27 0
-24 52 -54 -35 -8 27 0
-24 -52 54 35 8 27 0
-24 -52 54 35 -8 -27 0
-24 -52 54 -35 8 -27 0
-24 -52 54 -35 -8 27 0
-24 -52 -54 35 8 -27 0
-24 -52 -54 35 -8 27 0
-24 -52 -54 -35 8 27 0
-24 -52 -54 -35 -8 -27 0
41 65 56 40 27 -10 0
41 65 56 40 -27 10 0
41 65 56 -40 27 10 0
41 65 56 -40 -27 -10 0
41 65 -56 40 27 10 0
41 65 -56 40 -27 -10 0
41 65 -56 -40 27 -10 0
41 65 -56 -40 -27 10 0
41 -65 56 40 27 10 0
41 -65 56 40 -27 -10 0
41 -65 56 -40 27 -10 0
41 -65 56 -40 -27 10 0
41 -65 -56 40 27 -10 0
41 -65 -56 40 -27 10 0
41 -65 -56 -40 27 10 0
41 -65 -56 -40 -27 -10 0
-41 65 56 40 27 10 0
-41 65 56 40 -27 -10 0
-41 65 56 -40 27 -10 0
-41 65 56 -40 -27 10 0
-41 65 -56 40 27 -10 0
-41 65 -56 40 -27 10 0
-41 65 -56 -40 27 10 0
-41 65 -56 -40 -27 -10 0
-41 -65 56 40 27 -10 0
-41 -65 56 40 -27 10 0
-41 -65 56 -40 27 10 0
-41 -65 56 -40 -27 -10 0
-41 -65 -56 40 27 10 0
-41 -65 -56 40 -27 -10 0
-41 -65 -56 -40 27 -10 0
-41 -65 -56 -40 -27 10 0
15 2 37 10 -75 0
15 2 37 -10 75 0
15 2 -37 10 75 0
15 2 -37 -10 -75 0
15 -2 37 10 75 0
15 -2 37 -10 -75 0
15 -2 -37 10 -75 0
15 -2 -37 -10 75 0
-15 2 37 10 75 0
-15 2 37 -10 -75 0
-15 2 -37 10 -75 0
-15 2 -37 -10 75 0
-15 -2 37 10 -75 0
-15 -2 37 -10 75 0
-15 -2 -37 10 75 0
-15 -2 -37 -10 -75 0
46 1 16 9 75 -13 0
46 1 16 9 -75 13 0
46 1 16 -9 75 13 0
46 1 16 -9 -75 -13 0
46 1 -16 9 75 13 0
46 1 -16 9 -75 -13 0
46 1 -16 -9 75 -13 0
46 1 -16 -9 -75 13 0
46 -1 16 9 75 13 0
46 -1 16 9 -75 -13 0
46 -1 16 -9 75 -13 0
46 -1 16 -9 -75 13 0
46 -1 -16 9 75 -13 0
46 -1 -16 9 -75 13 0
46 -1 -16 -9 75 13 0
46 -1 -16 -9 -75 -13 0
-46 1 16 9 75 13 0
-46 1 16 9 -75 -13 0
-46 1 16 -9 75 -13 0
-46 1 16 -9 -75 13 0
-46 1 -16 9 75 -13 0
-46 1 -16 9 -75 13 0
-46 1 -16 -9 75 13 0
-46 1 -16 -9 -75 -13 0
-46 -1 16 9 75 -13 0
-46 -1 16 9 -75 13 0
-46 -1 16 -9 75 13 0
-46 -1 16 -9 -75 -13 0
-46 -1 -16 9 75 13 0
-46 -1 -16 9 -75 -13 0
-46 -1 -16 -9 75 -13 0
-46 -1 -16 -9 -75 13 0
59 44 67 50 13 -11 0
59 44 67 50 -13 11 0
59 44 67 -50 13 11 0
59 44 67 -50 -13 -11 0
59 44 -67 50 13 11 0
59 44 -67 50 -13 -11 0
59 44 -67 -50 13 -11 0
59 44 -67 -50 -13 11 0
59 -44 67 50 13 11 0
59 -44 67 50 -13 -11 0
59 -44 67 -50 13 -11 0
59 -44 67 -50 -13 11 0
59 -44 -67 50 13 -11 0
59 -44 -67 50 -13 11 0
59 -44 -67 -50 13 11 0
59 -44 -67 -50 -13 -11 0
-59 44 67 50 13 11 0
-59 44 67 50 -13 -11 0
-59 44 67 -50 13 -11 0
-59 44 67 -50 -13 11 0
-59 44 -67 50 13 -11 0
-59 44 -67 50 -13 11 0
-59 44 -67 -50 13 11 0
-59 44 -67 -50 -13 -11 0
-59 -44 67 50 13 -11 0
-59 -44 67 50 -13 11 0
-59 -44 67 -50 13 11 0
-59 -44 67 -50 -13 -11 0
-59 -44 -67 50 13 11 0
-59 -44 -67 50 -13 -11 0
-59 -44 -67 -50 13 -11 0
-59 -44 -67 -50 -13 11 0
60 11 -45 0
60 -11 45 0
-60 11 45 0
-60 -11 -45 0
21 45 32 0
21 -45 -32 0
-21 45 -32 0
-21 -45 32 0
49 18 62 36 12 32 29 0
49 18 62 36 12 -32 -29 0
49 18 62 36 -12 32 -29 0
49 18 62 36 -12 -32 29 0
49 18 62 -36 12 32 -29 0
49 18 62 -36 12 -32 29 0
49 18 62 -36 -12 32 29 0
49 18 62 -36 -12 -32 -29 0
49 18 -62 36 12 32 -29 0
49 18 -62 36 12 -32 29 0
49 18 -62 36 -12 32 29 0
49 18 -62 36 -12 -32 -29 0
49 18 -62 -36 12 32 29 0
49 18 -62 -36 12 -32 -29 0
49 18 -62 -36 -12 32 -29 0
49 18 -62 -36 -12 -32 29 0
49 -18 62 36 12 32 -29 0
49 -18 62 36 12 -32 29 0
49 -18 62 36 -12 32 29 0
49 -18 62 36 -12 -32 -29 0
49 -18 62 -36 12 32 29 0
49 -18 62 -36 12 -32 -29 0
49 -18 62 -36 -12 32 -29 0
49 -18 62 -36 -12 -32 29 0
49 -18 -62 36 12 32 29 0
49 -18 -62 36 12 -32 -29 0
49 -18 -62 36 -12 32 -29 0
49 -18 -62 36 -12 -32 29 0
49 -18 -62 -36 12 32 -29 0
49 -18 -62 -36 12 -32 29 0
49 -18 -62 -36 -12 32 29 0
49 -18 -62 -36 -12 -32 -29 0
-49 18 62 36 12 32 -29 0
-49 18 62 36 12 -32 29 0
-49 18 62 36 -12 32 29 0
-49 18 62 36 -12 -32 -29 0
-49 18 62 -36 12 32 29 0
-49 18 62 -36 12 -32 -29 0
-49 18 62 -36 -12 32 -29 0
-49 18 62 -36 -12 -32 29 0
-49 18 -62 36 12 32 29 0
-49 18 -62 36 12 -32 -29 0
-49 18 -62 36 -12 32 -29 0
-49 18 -62 36 -12 -32 29 0
-49 18 -62 -36 12 32 -29 0
-49 18 -62 -36 12 -32 29 0
-49 18 -62 -36 -12 32 29 0
-49 18 -62 -36 -12 -32 -29 0
-49 -18 62 36 12 32 29 0
-49 -18 62 36 12 -32 -29 0
-49 -18 62 36 -12 32 -29 0
-49 -18 62 36 -12 -32 29 0
-49 -18 62 -36 12 32 -29 0
-49 -18 62 -36 12 -32 29 0
-49 -18 62 -36 -12 32 29 0
-49 -18 62 -36 -12 -32 -29 0
-49 -18 -62 36 12 32 -29 0
-49 -18 -62 36 12 -32 29 0
-49 -18 -62 36 -12 32 29 0
-49 -18 -62 36 -12 -32 -29 0
-49 -18 -62 -36 12 32 29 0
-49 -18 -62 -36 12 -32 -29 0
-49 -18 -62 -36 -12 32 -29 0
-49 -18 -62 -36 -12 -32 29 0
70 79 19 69 29 85 0
70 79 19 69 -29 -85 0
70 79 19 -69 29 -85 0
70 79 19 -69 -29 85 0
70 79 -19 69 29 -85 0
70 79 -19 69 -29 85 0
70 79 -19 -69 29 85 0
70 79 -19 -69 -29 -85 0
70 -79 19 69 29 -85 0
70 -79 19 69 -29 85 0
70 -79 19 -69 29 85 0
70 -79 19 -69 -29 -85 0
70 -79 -19 69 29 85 0
70 -79 -19 69 -29 -85 0
70 -79 -19 -69 29 -85 0
70 -79 -19 -69 -29 85 0
-70 79 19 69 29 -85 0
-70 79 19 69 -29 85 0
-70 79 19 -69 29 85 0
-70 79 19 -69 -29 -85 0
-70 79 -19 69 29 85 0
-70 79 -19 69 -29 -85 0
-70 79 -19 -69 29 -85 0
-70 79 -19 -69 -29 85 0
-70 -79 19 69 29 85 0
-70 -79 19 69 -29 -85 0
-70 -79 19 -69 29 -85 0
-70 -79 19 -69 -29 85 0
-70 -79 -19 69 29 -85 0
-70 -79 -19 69 -29 85 0
-70 -79 -19 -69 29 85 0
-70 -79 -19 -69 -29 -85 0
74 7 38 83 85 -53 0
74 7 38 83 -85 53 0
74 7 38 -83 85 53 0
74 7 38 -83 -85 -53 0
74 7 -38 83 85 53 0
74 7 -38 83 -85 -53 0
74 7 -38 -83 85 -53 0
74 7 -38 -83 -85 53 0
74 -7 38 83 85 53 0
74 -7 38 83 -85 -53 0
74 -7 38 -83 85 -53 0
74 -7 38 -83 -85 53 0
74 -7 -38 83 85 -53 0
74 -7 -38 83 -85 53 0
74 -7 -38 -83 85 53 0
74 -7 -38 -83 -85 -53 0
-74 7 38 83 85 53 0
-74 7 38 83 -85 -53 0
-74 7 38 -83 85 -53 0
-74 7 38 -83 -85 53 0
-74 7 -38 83 85 -53 0
-74 7 -38 83 -85 53 0
-74 7 -38 -83 85 53 0
-74 7 -38 -83 -85 -53 0
-74 -7 38 83 85 -53 0
-74 -7 38 83 -85 53 0
-74 -7 38 -83 85 53 0
-74 -7 38 -83 -85 -53 0
-74 -7 -38 83 85 53 0
-74 -7 -38 83 -85 -53 0
-74 -7 -38 -83 85 -53 0
-74 -7 -38 -83 -85 53 0
39 4 64 53 -58 0
39 4 64 -53 58 0
39 4 -64 53 58 0
39 4 -64 -53 -58 0
39 -4 64 53 58 0
39 -4 64 -53 -58 0
39 -4 -64 53 -58 0
39 -4 -64 -53 58 0
-39 4 64 53 58 0
-39 4 64 -53 -58 0
-39 4 -64 53 -58 0
-39 4 -64 -53 58 0
-39 -4 64 53 -58 0
-39 -4 64 -53 58 0
-39 -4 -64 53 58 0
-39 -4 -64 -53 -58 0
5 28 68 31 72 58 -3 0
5 28 68 31 72 -58 3 0
5 28 68 31 -72 58 3 0
5 28 68 31 -72 -58 -3 0
5 28 68 -31 72 58 3 0
5 28 68 -31 72 -58 -3 0
5 28 68 -31 -72 58 -3 0
5 28 68 -31 -72 -58 3 0
5 28 -68 31 72 58 3 0
5 28 -68 31 72 -58 -3 0
5 28 -68 31 -72 58 -3 0
5 28 -68 31 -72 -58 3 0
5 28 -68 -31 72 58 -3 0
5 28 -68 -31 72 -58 3 0
5 28 -68 -31 -72 58 3 0
5 28 -68 -31 -72 -58 -3 0
5 -28 68 31 72 58 3 0
5 -28 68 31 72 -58 -3 0
5 -28 68 31 -72 58 -3 0
5 -28 68 31 -72 -58 3 0
5 -28 68 -31 72 58 -3 0
5 -28 68 -31 72 -58 3 0
5 -28 68 -31 -72 58 3 0
5 -28 68 -31 -72 -58 -3 0
5 -28 -68 31 72 58 -3 0
5 -28 -68 31 72 -58 3 0
5 -28 -68 31 -72 58 3 0
5 -28 -68 31 -72 -58 -3 0
5 -28 -68 -31 72 58 3 0
5 -28 -68 -31 72 -58 -3 0
5 -28 -68 -31 -72 58 -3 0
5 -28 -68 -31 -72 -58 3 0
-5 28 68 31 72 58 3 0
-5 28 68 31 72 -58 -3 0
-5 28 68 31 -72 58 -3 0
-5 28 68 31 -72 -58 3 0
-5 28 68 -31 72 58 -3 0
-5 28 68 -31 72 -58 3 0
-5 28 68 -31 -72 58 3 0
-5 28 68 -31 -72 -58 -3 0
-5 28 -68 31 72 58 -3 0
-5 28 -68 31 72 -58 3 0
-5 28 -68 31 -72 58 3 0
-5 28 -68 31 -72 -58 -3 0
-5 28 -68 -31 72 58 3 0
-5 28 -68 -31 72 -58 -3 0
-5 28 -68 -31 -72 58 -3 0
-5 28 -68 -31 -72 -58 3 0
-5 -28 68 31 72 58 -3 0
-5 -28 68 31 72 -58 3 0
-5 -28 68 31 -72 58 3 0
-5 -28 68 31 -72 -58 -3 0
-5 -28 68 -31 72 58 3 0
-5 -28 68 -31 72 -58 -3 0
-5 -28 68 -31 -72 58 -3 0
-5 -28 68 -31 -72 -58 3 0
-5 -28 -68 31 72 58 3 0
-5 -28 -68 31 72 -58 -3 0
-5 -28 -68 31 -72 58 -3 0
-5 -28 -68 31 -72 -58 3 0
-5 -28 -68 -31 72 58 -3 0
-5 -28 -68 -31 72 -58 3 0
-5 -28 -68 -31 -72 58 3 0
-5 -28 -68 -31 -72 -58 -3 0
25 73 23 71 3 -78 0
25 73 23 71 -3 78 0
25 73 23 -71 3 78 0
25 73 23 -71 -3 -78 0
25 73 -23 71 3 78 0
25 73 -23 71 -3 -78 0
25 73 -23 -71 3 -78 0
25 73 -23 -71 -3 78 0
25 -73 23 71 3 78 0
25 -73 23 71 -3 -78 0
25 -73 23 -71 3 -78 0
25 -73 23 -71 -3 78 0
25 -73 -23 71 3 -78 0
25 -73 -23 71 -3 78 0
25 -73 -23 -71 3 78 0
25 -73 -23 -71 -3 -78 0
-25 73 23 71 3 78 0
-25 73 23 71 -3 -78 0
-25 73 23 -71 3 -78 0
-25 73 23 -71 -3 78 0
-25 73 -23 71 3 -78 0
-25 73 -23 71 -3 78 0
-25 73 -23 -71 3 78 0
-25 73 -23 -71 -3 -78 0
-25 -73 23 71 3 -78 0
-25 -73 23 71 -3 78 0
-25 -73 23 -71 3 78 0
-25 -73 23 -71 -3 -78 0
-25 -73 -23 71 3 78 0
-25 -73 -23 71 -3 -78 0
-25 -73 -23 -71 3 -78 0
-25 -73 -23 -71 -3 78 0
34 26 20 66 61 78 -42 0
34 26 20 66 61 -78 42 0
34 26 20 66 -61 78 42 0
34 26 20 66 -61 -78 -42 0
34 26 20 -66 61 78 42 0
34 26 20 -66 61 -78 -42 0
34 26 20 -66 -61 78 -42 0
34 26 20 -66 -61 -78 42 0
34 26 -20 66 61 78 42 0
34 26 -20 66 61 -78 -42 0
34 26 -20 66 -61 78 -42 0
34 26 -20 66 -61 -78 42 0
34 26 -20 -66 61 78 -42 0
34 26 -20 -66 61 -78 42 0
34 26 -20 -66 -61 78 42 0
34 26 -20 -66 -61 -78 -42 0
34 -26 20 66 61 78 42 0
34 -26 20 66 61 -78 -42 0
34 -26 20 66 -61 78 -42 0
34 -26 20 66 -61 -78 42 0
34 -26 20 -66 61 78 -42 0
34 -26 20 -66 61 -78 42 0
34 -26 20 -66 -61 78 42 0
34 -26 20 -66 -61 -78 -42 0
34 -26 -20 66 61 78 -42 0
34 -26 -20 66 61 -78 42 0
34 -26 -20 66 -61 78 42 0
34 -26 -20 66 -61 -78 -42 0
34 -26 -20 -66 61 78 42 0
34 -26 -20 -66 61 -78 -42 0
34 -26 -20 -66 -61 78 -42 0
34 -26 -20 -66 -61 -78 42 0
-34 26 20 66 61 78 42 0
-34 26 20 66 61 -78 -42 0
-34 26 20 66 -61 78 -42 0
-34 26 20 66 -61 -78 42 0
-34 26 20 -66 61 78 -42 0
-34 26 20 -66 61 -78 42 0
-34 26 20 -66 -61 78 42 0
-34 26 20 -66 -61 -78 -42 0
-34 26 -20 66 61 78 -42 0
-34 26 -20 66 61 -78 42 0
-34 26 -20 66 -61 78 42 0
-34 26 -20 66 -61 -78 -42 0
-34 26 -20 -66 61 78 42 0
-34 26 -20 -66 61 -78 -42 0
-34 26 -20 -66 -61 78 -42 0
-34 26 -20 -66 -61 -78 42 0
-34 -26 20 66 61 78 -42 0
-34 -26 20 66 61 -78 42 0
-34 -26 20 66 -61 78 42 0
-34 -26 20 66 -61 -78 -42 0
-34 -26 20 -66 61 78 42 0
-34 -26 20 -66 61 -78 -42 0
-34 -26 20 -66 -61 78 -42 0
-34 -26 20 -66 -61 -78 42 0
-34 -26 -20 66 61 78 42 0
-34 -26 -20 66 61 -78 -42 0
-34 -26 -20 66 -61 78 -42 0
-34 -26 -20 66 -61 -78 42 0
-34 -26 -20 -66 61 78 -42 0
-34 -26 -20 -66 61 -78 42 0
-34 -26 -20 -66 -61 78 42 0
-34 -26 -20 -66 -61 -78 -42 0
22 17 -42 0
22 -17 42 0
-22 17 42 0
-22 -17 -42 0
74 62 72 73 -14 0
74 62 72 -73 14 0
74 62 -72 73 14 0
74 62 -72 -73 -14 0
74 -62 72 73 14 0
74 -62 72 -73 -14 0
74 -62 -72 73 -14 0
74 -62 -72 -73 14 0
-74 62 72 73 14 0
-74 62 72 -73 -14 0
-74 62 -72 73 -14 0
-74 62 -72 -73 14 0
-74 -62 72 73 -14 0
-74 -62 72 -73 14 0
-74 -62 -72 73 14 0
-74 -62 -72 -73 -14 0
49 81 65 19 23 14 -80 0
49 81 65 19 23 -14 80 0
49 81 65 19 -23 14 80 0
49 81 65 19 -23 -14 -80 0
49 81 65 -19 23 14 80 0
49 81 65 -19 23 -14 -80 0
49 81 65 -19 -23 14 -80 0
49 81 65 -19 -23 -14 80 0
49 81 -65 19 23 14 80 0
49 81 -65 19 23 -14 -80 0
49 81 -65 19 -23 14 -80 0
49 81 -65 19 -23 -14 80 0
49 81 -65 -19 23 14 -80 0
49 81 -65 -19 23 -14 80 0
49 81 -65 -19 -23 14 80 0
49 81 -65 -19 -23 -14 -80 0
49 -81 65 19 23 14 80 0
49 -81 65 19 23 -14 -80 0
49 -81 65 19 -23 14 -80 0
49 -81 65 19 -23 -14 80 0
49 -81 65 -19 23 14 -80 0
49 -81 65 -19 23 -14 80 0
49 -81 65 -19 -23 14 80 0
49 -81 65 -19 -23 -14 -80 0
49 -81 -65 19 23 14 -80 0
49 -81 -65 19 23 -14 80 0
49 -81 -65 19 -23 14 80 0
49 -81 -65 19 -23 -14 -80 0
49 -81 -65 -19 23 14 80 0
49 -81 -65 -19 23 -14 -80 0
49 -81 -65 -19 -23 14 -80 0
49 -81 -65 -19 -23 -14 80 0
-49 81 65 19 23 14 80 0
-49 81 65 19 23 -14 -80 0
-49 81 65 19 -23 14 -80 0
-49 81 65 19 -23 -14 80 0
-49 81 65 -19 23 14 -80 0
-49 81 65 -19 23 -14 80 0
-49 81 65 -19 -23 14 80 0
-49 81 65 -19 -23 -14 -80 0
-49 81 -65 19 23 14 -80 0
-49 81 -65 19 23 -14 80 0
-49 81 -65 19 -23 14 80 0
-49 81 -65 19 -23 -14 -80 0
-49 81 -65 -19 23 14 80 0
-49 81 -65 -19 23 -14 -80 0
-49 81 -65 -19 -23 14 -80 0
-49 81 -65 -19 -23 -14 80 0
-49 -81 65 19 23 14 -80 0
-49 -81 65 19 23 -14 80 0
-49 -81 65 19 -23 14 80 0
-49 -81 65 19 -23 -14 -80 0
-49 -81 65 -19 23 14 80 0
-49 -81 65 -19 23 -14 -80 0
-49 -81 65 -19 -23 14 -80 0
-49 -81 65 -19 -23 -14 80 0
-49 -81 -65 19 23 14 80 0
-49 -81 -65 19 23 -14 -80 0
-49 -81 -65 19 -23 14 -80 0
-49 -81 -65 19 -23 -14 80 0
-49 -81 -65 -19 23 14 -80 0
-49 -81 -65 -19 23 -14 80 0
-49 -81 -65 -19 -23 14 80 0
-49 -81 -65 -19 -23 -14 -80 0
60 37 12 68 61 80 -82 0
60 37 12 68 61 -80 82 0
60 37 12 68 -61 80 82 0
60 37 12 68 -61 -80 -82 0
60 37 12 -68 61 80 82 0
60 37 12 -68 61 -80 -82 0
60 37 12 -68 -61 80 -82 0
60 37 12 -68 -61 -80 82 0
60 37 -12 68 61 80 82 0
60 37 -12 68 61 -80 -82 0
60 37 -12 68 -61 80 -82 0
60 37 -12 68 -61 -80 82 0
60 37 -12 -68 61 80 -82 0
60 37 -12 -68 61 -80 82 0
60 37 -12 -68 -61 80 82 0
60 37 -12 -68 -61 -80 -82 0
60 -37 12 68 61 80 82 0
60 -37 12 68 61 -80 -82 0
60 -37 12 68 -61 80 -82 0
60 -37 12 68 -61 -80 82 0
60 -37 12 -68 61 80 -82 0
60 -37 12 -68 61 -80 82 0
60 -37 12 -68 -61 80 82 0
60 -37 12 -68 -61 -80 -82 0
60 -37 -12 68 61 80 -82 0
60 -37 -12 68 61 -80 82 0
60 -37 -12 68 -61 80 82 0
60 -37 -12 68 -61 -80 -82 0
60 -37 -12 -68 61 80 82 0
60 -37 -12 -68 61 -80 -82 0
60 -37 -12 -68 -61 80 -82 0
60 -37 -12 -68 -61 -80 82 0
-60 37 12 68 61 80 82 0
-60 37 12 68 61 -80 -82 0
-60 37 12 68 -61 80 -82 0
-60 37 12 68 -61 -80 82 0
-60 37 12 -68 61 80 -82 0
-60 37 12 -68 61 -80 82 0
-60 37 12 -68 -61 80 82 0
-60 37 12 -68 -61 -80 -82 0
-60 37 -12 68 61 80 -82 0
-60 37 -12 68 61 -80 82 0
-60 37 -12 68 -61 80 82 0
-60 37 -12 68 -61 -80 -82 0
-60 37 -12 -68 61 80 82 0
-60 37 -12 -68 61 -80 -82 0
-60 37 -12 -68 -61 80 -82 0
-60 37 -12 -68 -61 -80 82 0
-60 -37 12 68 61 80 -82 0
-60 -37 12 68 61 -80 82 0
-60 -37 12 68 -61 80 82 0
-60 -37 12 68 -61 -80 -82 0
-60 -37 12 -68 61 80 82 0
-60 -37 12 -68 61 -80 -82 0
-60 -37 12 -68 -61 80 -82 0
-60 -37 12 -68 -61 -80 82 0
-60 -37 -12 68 61 80 82 0
-60 -37 -12 68 61 -80 -82 0
-60 -37 -12 68 -61 80 -82 0
-60 -37 -12 68 -61 -80 82 0
-60 -37 -12 -68 61 80 -82 0
-60 -37 -12 -68 61 -80 82 0
-60 -37 -12 -68 -61 80 82 0
-60 -37 -12 -68 -61 -80 -82 0
70 40 31 82 -48 0
70 40 31 -82 48 0
70 40 -31 82 48 0
70 40 -31 -82 -48 0
70 -40 31 82 48 0
70 -40 31 -82 -48 0
70 -40 -31 82 -48 0
70 -40 -31 -82 48 0
-70 40 31 82 48 0
-70 40 31 -82 -48 0
-70 40 -31 82 -48 0
-70 40 -31 -82 48 0
-70 -40 31 82 -48 0
-70 -40 31 -82 48 0
-70 -40 -31 82 48 0
-70 -40 -31 -82 -48 0
15 48 -33 0
15 -48 33 0
-15 48 33 0
-15 -48 -33 0
41 67 33 30 0
41 67 -33 -30 0
41 -67 33 -30 0
41 -67 -33 30 0
-41 67 33 -30 0
-41 67 -33 30 0
-41 -67 33 30 0
-41 -67 -33 -30 0
59 79 38 30 55 0
59 79 38 -30 -55 0
59 79 -38 30 -55 0
59 79 -38 -30 55 0
59 -79 38 30 -55 0
59 -79 38 -30 55 0
59 -79 -38 30 55 0
59 -79 -38 -30 -55 0
-59 79 38 30 -55 0
-59 79 38 -30 55 0
-59 79 -38 30 55 0
-59 79 -38 -30 -55 0
-59 -79 38 30 55 0
-59 -79 38 -30 -55 0
-59 -79 -38 30 -55 0
-59 -79 -38 -30 55 0
39 69 83 26 55 84 0
39 69 83 26 -55 -84 0
39 69 83 -26 55 -84 0
39 69 83 -26 -55 84 0
39 69 -83 26 55 -84 0
39 69 -83 26 -55 84 0
39 69 -83 -26 55 84 0
39 69 -83 -26 -55 -84 0
39 -69 83 26 55 -84 0
39 -69 83 26 -55 84 0
39 -69 83 -26 55 84 0
39 -69 83 -26 -55 -84 0
39 -69 -83 26 55 84 0
39 -69 -83 26 -55 -84 0
39 -69 -83 -26 55 -84 0
39 -69 -83 -26 -55 84 0
-39 69 83 26 55 -84 0
-39 69 83 26 -55 84 0
-39 69 83 -26 55 84 0
-39 69 83 -26 -55 -84 0
-39 69 -83 26 55 84 0
-39 69 -83 26 -55 -84 0
-39 69 -83 -26 55 -84 0
-39 69 -83 -26 -55 84 0
-39 -69 83 26 55 84 0
-39 -69 83 26 -55 -84 0
-39 -69 83 -26 55 -84 0
-39 -69 83 -26 -55 84 0
-39 -69 -83 26 55 -84 0
-39 -69 -83 26 -55 84 0
-39 -69 -83 -26 55 84 0
-39 -69 -83 -26 -55 -84 0
21 44 64 71 84 63 0
21 44 64 71 -84 -63 0
21 44 64 -71 84 -63 0
21 44 64 -71 -84 63 0
21 44 -64 71 84 -63 0
21 44 -64 71 -84 63 0
21 44 -64 -71 84 63 0
21 44 -64 -71 -84 -63 0
21 -44 64 71 84 -63 0
21 -44 64 71 -84 63 0
21 -44 64 -71 84 63 0
21 -44 64 -71 -84 -63 0
21 -44 -64 71 84 63 0
21 -44 -64 71 -84 -63 0
21 -44 -64 -71 84 -63 0
21 -44 -64 -71 -84 63 0
-21 44 64 71 84 -63 0
-21 44 64 71 -84 63 0
-21 44 64 -71 84 63 0
-21 44 64 -71 -84 -63 0
-21 44 -64 71 84 63 0
-21 44 -64 71 -84 -63 0
-21 44 -64 -71 84 -63 0
-21 44 -64 -71 -84 63 0
-21 -44 64 71 84 63 0
-21 -44 64 71 -84 -63 0
-21 -44 64 -71 84 -63 0
-21 -44 64 -71 -84 63 0
-21 -44 -64 71 84 -63 0
-21 -44 -64 71 -84 63 0
-21 -44 -64 -71 84 63 0
-21 -44 -64 -71 -84 -63 0
22 56 9 36 63 -6 0
22 56 9 36 -63 6 0
22 56 9 -36 63 6 0
22 56 9 -36 -63 -6 0
22 56 -9 36 63 6 0
22 56 -9 36 -63 -6 0
22 56 -9 -36 63 -6 0
22 56 -9 -36 -63 6 0
22 -56 9 36 63 6 0
22 -56 9 36 -63 -6 0
22 -56 9 -36 63 -6 0
22 -56 9 -36 -63 6 0
22 -56 -9 36 63 -6 0
22 -56 -9 36 -63 6 0
22 -56 -9 -36 63 6 0
22 -56 -9 -36 -63 -6 0
-22 56 9 36 63 6 0
-22 56 9 36 -63 -6 0
-22 56 9 -36 63 -6 0
-22 56 9 -36 -63 6 0
-22 56 -9 36 63 -6 0
-22 56 -9 36 -63 6 0
-22 56 -9 -36 63 6 0
-22 56 -9 -36 -63 -6 0
-22 -56 9 36 63 -6 0
-22 -56 9 36 -63 6 0
-22 -56 9 -36 63 6 0
-22 -56 9 -36 -63 -6 0
-22 -56 -9 36 63 6 0
-22 -56 -9 36 -63 -6 0
-22 -56 -9 -36 63 -6 0
-22 -56 -9 -36 -63 6 0
24 4 6 57 0
24 4 -6 -57 0
24 -4 6 -57 0
24 -4 -6 57 0
-24 4 6 -57 0
-24 4 -6 57 0
-24 -4 6 57 0
-24 -4 -6 -57 0
46 50 57 43 0
46 50 -57 -43 0
46 -50 57 -43 0
46 -50 -57 43 0
-46 50 57 -43 0
-46 50 -57 43 0
-46 -50 57 43 0
-46 -50 -57 -43 0
34 1 43 -47 0
34 1 -43 47 0
34 -1 43 47 0
34 -1 -43 -47 0
-34 1 43 47 0
-34 1 -43 -47 0
-34 -1 43 -47 0
-34 -1 -43 47 0
76 35 2 20 47 77 0
76 35 2 20 -47 -77 0
76 35 2 -20 47 -77 0
76 35 2 -20 -47 77 0
76 35 -2 20 47 -77 0
76 35 -2 20 -47 77 0
76 35 -2 -20 47 77 0
76 35 -2 -20 -47 -77 0
76 -35 2 20 47 -77 0
76 -35 2 20 -47 77 0
76 -35 2 -20 47 77 0
76 -35 2 -20 -47 -77 0
76 -35 -2 20 47 77 0
76 -35 -2 20 -47 -77 0
76 -35 -2 -20 47 -77 0
76 -35 -2 -20 -47 77 0
-76 35 2 20 47 -77 0
-76 35 2 20 -47 77 0
-76 35 2 -20 47 77 0
-76 35 2 -20 -47 -77 0
-76 35 -2 20 47 77 0
-76 35 -2 20 -47 -77 0
-76 35 -2 -20 47 -77 0
-76 35 -2 -20 -47 77 0
-76 -35 2 20 47 77 0
-76 -35 2 20 -47 -77 0
-76 -35 2 -20 47 -77 0
-76 -35 2 -20 -47 77 0
-76 -35 -2 20 47 -77 0
-76 -35 -2 20 -47 77 0
-76 -35 -2 -20 47 77 0
-76 -35 -2 -20 -47 -77 0
25 54 28 66 17 77 -51 0
25 54 28 66 17 -77 51 0
25 54 28 66 -17 77 51 0
25 54 28 66 -17 -77 -51 0
25 54 28 -66 17 77 51 0
25 54 28 -66 17 -77 -51 0
25 54 28 -66 -17 77 -51 0
25 54 28 -66 -17 -77 51 0
25 54 -28 66 17 77 51 0
25 54 -28 66 17 -77 -51 0
25 54 -28 66 -17 77 -51 0
25 54 -28 66 -17 -77 51 0
25 54 -28 -66 17 77 -51 0
25 54 -28 -66 17 -77 51 0
25 54 -28 -66 -17 77 51 0
25 54 -28 -66 -17 -77 -51 0
25 -54 28 66 17 77 51 0
25 -54 28 66 17 -77 -51 0
25 -54 28 66 -17 77 -51 0
25 -54 28 66 -17 -77 51 0
25 -54 28 -66 17 77 -51 0
25 -54 28 -66 17 -77 51 0
25 -54 28 -66 -17 77 51 0
25 -54 28 -66 -17 -77 -51 0
25 -54 -28 66 17 77 -51 0
25 -54 -28 66 17 -77 51 0
25 -54 -28 66 -17 77 51 0
25 -54 -28 66 -17 -77 -51 0
25 -54 -28 -66 17 77 51 0
25 -54 -28 -66 17 -77 -51 0
25 -54 -28 -66 -17 77 -51 0
25 -54 -28 -66 -17 -77 51 0
-25 54 28 66 17 77 51 0
-25 54 28 66 17 -77 -51 0
-25 54 28 66 -17 77 -51 0
-25 54 28 66 -17 -77 51 0
-25 54 28 -66 17 77 -51 0
-25 54 28 -66 17 -77 51 0
-25 54 28 -66 -17 77 51 0
-25 54 28 -66 -17 -77 -51 0
-25 54 -28 66 17 77 -51 0
-25 54 -28 66 17 -77 51 0
-25 54 -28 66 -17 77 51 0
-25 54 -28 66 -17 -77 -51 0
-25 54 -28 -66 17 77 51 0
-25 54 -28 -66 17 -77 -51 0
-25 54 -28 -66 -17 77 -51 0
-25 54 -28 -66 -17 -77 51 0
-25 -54 28 66 17 77 -51 0
-25 -54 28 66 17 -77 51 0
-25 -54 28 66 -17 77 51 0
-25 -54 28 66 -17 -77 -51 0
-25 -54 28 -66 17 77 51 0
-25 -54 28 -66 17 -77 -51 0
-25 -54 28 -66 -17 77 -51 0
-25 -54 28 -66 -17 -77 51 0
-25 -54 -28 66 17 77 51 0
-25 -54 -28 66 17 -77 -51 0
-25 -54 -28 66 -17 77 -51 0
-25 -54 -28 66 -17 -77 51 0
-25 -54 -28 -66 17 77 -51 0
-25 -54 -28 -66 17 -77 51 0
-25 -54 -28 -66 -17 77 51 0
-25 -54 -28 -66 -17 -77 -51 0
5 52 16 18 7 51 0
5 52 16 18 -7 -51 0
5 52 16 -18 7 -51 0
5 52 16 -18 -7 51 0
5 52 -16 18 7 -51 0
5 52 -16 18 -7 51 0
5 52 -16 -18 7 51 0
5 52 -16 -18 -7 -51 0
5 -52 16 18 7 -51 0
5 -52 16 18 -7 51 0
5 -52 16 -18 7 51 0
5 -52 16 -18 -7 -51 0
5 -52 -16 18 7 51 0
5 -52 -16 18 -7 -51 0
5 -52 -16 -18 7 -51 0
5 -52 -16 -18 -7 51 0
-5 52 16 18 7 -51 0
-5 52 16 18 -7 51 0
-5 52 16 -18 7 51 0
-5 52 16 -18 -7 -51 0
-5 52 -16 18 7 51 0
-5 52 -16 18 -7 -51 0
-5 52 -16 -18 7 -51 0
-5 52 -16 -18 -7 51 0
-5 -52 16 18 7 51 0
-5 -52 16 18 -7 -51 0
-5 -52 16 -18 7 -51 0
-5 -52 16 -18 -7 51 0
-5 -52 -16 18 7 -51 0
-5 -52 -16 18 -7 51 0
-5 -52 -16 -18 7 51 0
-5 -52 -16 -18 -7 -51 0
